NAME : n100w200.001.570.tour
COMMENT : Length = 570
COMMENT : Found by LKH [Keld Helsgaun] Tue May  2 05:19:10 2017
TYPE : TOUR
DIMENSION : 101
TOUR_SECTION
1
12
66
7
36
35
88
47
56
18
68
69
51
94
17
86
96
28
76
5
95
30
74
87
80
26
57
4
61
92
62
77
82
32
85
10
72
20
49
43
83
60
42
98
21
90
73
50
71
37
55
8
45
65
54
78
6
39
91
22
29
33
15
70
79
34
11
19
48
100
75
24
38
81
16
2
44
58
46
25
93
9
67
89
63
23
13
27
64
40
53
84
97
14
41
52
3
31
101
99
59
-1
EOF
